# Objective value = 40
WA1n 0
WA1p 0
WA2n 1
WA2p 0
WB1n 0
WB1p 0
WB2n 1
WB2p 0
WC1n 0
WC1p 0
WC2n 0
WC2p 1
WD1n 1
WD1p 0
WD2n 1
WD2p 0
WE1n 1
WE1p 0
WE2n 1
WE2p 0
WF1n 4
WF1p 0
WF2n 0
WF2p 0
WG1n 3
WG1p 0
WG2n 1
WG2p 0
WH1n 9
WH1p 0
WH2n 0
WH2p 0
WI1n 0
WI1p 9
WI2n 0
WI2p 0
WT1n 0
WT1p 1
WT2n 0
WT2p 0
100 104
a 1
b 1
c 1
d 1
e 1
f 1
g 1
h 1
i 1
j 1
k 1
l 1
m 1
n 1
o 0
p 0
q 1
r 1
s 1
t 1
